70
1 0 3
2 0 9
2 1 3
3 0 3
3 1 6
3 2 1
4 0 8
4 1 6
4 2 7
4 3 11
5 0 4
5 1 8
5 2 2
5 3 3
5 4 6
6 0 2
6 1 6
6 2 10
6 3 7
6 4 2
6 5 8
7 0 9
7 1 2
7 2 8
7 3 6
7 4 8
7 5 2
7 6 8
8 0 8
8 1 4
8 2 8
8 3 2
8 4 1
8 5 1
8 6 8
8 7 2
9 0 2
9 1 11
9 2 3
9 3 2
9 4 6
9 5 2
9 6 2
9 7 4
9 8 2
10 0 5
10 1 3
10 2 10
10 3 11
10 4 1
10 5 7
10 6 3
10 7 10
10 8 2
10 9 9
11 0 5
11 1 6
11 2 8
11 3 10
11 4 7
11 5 8
11 6 4
11 7 9
11 8 11
11 9 10
11 10 10
12 0 7
12 1 6
12 2 1
12 3 9
12 4 10
12 5 4
12 6 6
12 7 6
12 8 4
12 9 7
12 10 4
12 11 7
13 0 1
13 1 1
13 2 9
13 3 5
13 4 6
13 5 5
13 6 11
13 7 1
13 8 11
13 9 10
13 10 11
13 11 8
13 12 11
14 0 6
14 1 5
14 2 9
14 3 9
14 4 11
14 5 7
14 6 2
14 7 3
14 8 5
14 9 8
14 10 7
14 11 6
14 12 7
14 13 6
15 0 11
15 1 5
15 2 4
15 3 5
15 4 10
15 5 6
15 6 2
15 7 8
15 8 10
15 9 2
15 10 6
15 11 2
15 12 4
15 13 4
15 14 9
16 0 2
16 1 10
16 2 6
16 3 9
16 4 11
16 5 9
16 6 3
16 7 10
16 8 5
16 9 8
16 10 8
16 11 3
16 12 1
16 13 9
16 14 2
16 15 7
17 0 9
17 1 4
17 2 1
17 3 2
17 4 1
17 5 5
17 6 11
17 7 10
17 8 9
17 9 8
17 10 9
17 11 7
17 12 3
17 13 9
17 14 11
17 15 7
17 16 10
18 0 11
18 1 5
18 2 10
18 3 9
18 4 10
18 5 3
18 6 8
18 7 11
18 8 5
18 9 1
18 10 2
18 11 9
18 12 10
18 13 6
18 14 8
18 15 3
18 16 3
18 17 2
19 0 9
19 1 7
19 2 4
19 3 5
19 4 5
19 5 8
19 6 6
19 7 1
19 8 8
19 9 3
19 10 6
19 11 1
19 12 8
19 13 7
19 14 7
19 15 8
19 16 2
19 17 11
19 18 1
20 0 4
20 1 5
20 2 7
20 3 2
20 4 9
20 5 3
20 6 3
20 7 8
20 8 11
20 9 11
20 10 8
20 11 9
20 12 8
20 13 7
20 14 3
20 15 8
20 16 4
20 17 11
20 18 5
20 19 5
21 0 3
21 1 5
21 2 7
21 3 7
21 4 6
21 5 10
21 6 3
21 7 7
21 8 11
21 9 7
21 10 11
21 11 5
21 12 3
21 13 7
21 14 2
21 15 6
21 16 5
21 17 4
21 18 4
21 19 11
21 20 11
22 0 3
22 1 6
22 2 8
22 3 7
22 4 9
22 5 4
22 6 11
22 7 1
22 8 1
22 9 3
22 10 11
22 11 10
22 12 2
22 13 10
22 14 4
22 15 5
22 16 8
22 17 1
22 18 9
22 19 6
22 20 1
22 21 7
23 0 7
23 1 3
23 2 6
23 3 4
23 4 9
23 5 8
23 6 1
23 7 1
23 8 6
23 9 2
23 10 8
23 11 7
23 12 1
23 13 7
23 14 4
23 15 5
23 16 1
23 17 11
23 18 11
23 19 6
23 20 5
23 21 7
23 22 2
24 0 8
24 1 6
24 2 5
24 3 3
24 4 5
24 5 10
24 6 2
24 7 1
24 8 8
24 9 1
24 10 4
24 11 7
24 12 8
24 13 10
24 14 10
24 15 5
24 16 1
24 17 10
24 18 10
24 19 3
24 20 6
24 21 6
24 22 5
24 23 6
25 0 10
25 1 5
25 2 3
25 3 1
25 4 10
25 5 6
25 6 5
25 7 10
25 8 9
25 9 4
25 10 10
25 11 10
25 12 4
25 13 5
25 14 5
25 15 4
25 16 5
25 17 8
25 18 9
25 19 2
25 20 5
25 21 5
25 22 6
25 23 11
25 24 10
26 0 4
26 1 7
26 2 9
26 3 1
26 4 7
26 5 2
26 6 5
26 7 8
26 8 1
26 9 9
26 10 6
26 11 8
26 12 9
26 13 3
26 14 6
26 15 8
26 16 2
26 17 10
26 18 5
26 19 5
26 20 6
26 21 11
26 22 4
26 23 8
26 24 8
26 25 10
27 0 1
27 1 8
27 2 2
27 3 7
27 4 10
27 5 7
27 6 1
27 7 7
27 8 10
27 9 4
27 10 5
27 11 11
27 12 2
27 13 9
27 14 7
27 15 1
27 16 3
27 17 6
27 18 8
27 19 10
27 20 4
27 21 10
27 22 3
27 23 10
27 24 9
27 25 7
27 26 1
28 0 1
28 1 8
28 2 8
28 3 10
28 4 7
28 5 3
28 6 1
28 7 4
28 8 11
28 9 4
28 10 10
28 11 7
28 12 8
28 13 9
28 14 9
28 15 8
28 16 1
28 17 3
28 18 8
28 19 4
28 20 5
28 21 8
28 22 4
28 23 5
28 24 2
28 25 1
28 26 5
28 27 3
29 0 10
29 1 10
29 2 6
29 3 3
29 4 10
29 5 4
29 6 2
29 7 3
29 8 8
29 9 11
29 10 9
29 11 5
29 12 11
29 13 9
29 14 7
29 15 1
29 16 5
29 17 3
29 18 8
29 19 6
29 20 4
29 21 6
29 22 5
29 23 6
29 24 2
29 25 1
29 26 4
29 27 1
29 28 7
30 0 5
30 1 2
30 2 6
30 3 11
30 4 11
30 5 8
30 6 11
30 7 10
30 8 2
30 9 8
30 10 8
30 11 9
30 12 11
30 13 2
30 14 1
30 15 4
30 16 10
30 17 3
30 18 10
30 19 10
30 20 8
30 21 8
30 22 8
30 23 9
30 24 8
30 25 4
30 26 11
30 27 6
30 28 9
30 29 10
31 0 10
31 1 3
31 2 5
31 3 5
31 4 3
31 5 9
31 6 11
31 7 5
31 8 4
31 9 5
31 10 5
31 11 4
31 12 7
31 13 9
31 14 7
31 15 4
31 16 1
31 17 3
31 18 3
31 19 5
31 20 9
31 21 5
31 22 8
31 23 1
31 24 8
31 25 11
31 26 7
31 27 4
31 28 11
31 29 6
31 30 10
32 0 11
32 1 3
32 2 1
32 3 10
32 4 10
32 5 7
32 6 9
32 7 8
32 8 6
32 9 6
32 10 1
32 11 11
32 12 1
32 13 1
32 14 3
32 15 3
32 16 2
32 17 9
32 18 2
32 19 5
32 20 10
32 21 9
32 22 1
32 23 5
32 24 1
32 25 11
32 26 3
32 27 11
32 28 4
32 29 2
32 30 8
32 31 4
33 0 2
33 1 4
33 2 1
33 3 6
33 4 9
33 5 2
33 6 7
33 7 9
33 8 4
33 9 1
33 10 9
33 11 9
33 12 10
33 13 11
33 14 1
33 15 8
33 16 10
33 17 1
33 18 7
33 19 9
33 20 4
33 21 1
33 22 6
33 23 9
33 24 5
33 25 3
33 26 2
33 27 4
33 28 8
33 29 7
33 30 5
33 31 7
33 32 3
34 0 2
34 1 1
34 2 10
34 3 4
34 4 1
34 5 9
34 6 6
34 7 10
34 8 6
34 9 9
34 10 6
34 11 7
34 12 3
34 13 6
34 14 11
34 15 9
34 16 11
34 17 6
34 18 6
34 19 9
34 20 6
34 21 4
34 22 4
34 23 11
34 24 10
34 25 1
34 26 10
34 27 7
34 28 8
34 29 4
34 30 11
34 31 3
34 32 6
34 33 10
35 0 1
35 1 3
35 2 2
35 3 10
35 4 6
35 5 1
35 6 3
35 7 4
35 8 4
35 9 8
35 10 5
35 11 10
35 12 9
35 13 2
35 14 6
35 15 5
35 16 4
35 17 7
35 18 3
35 19 5
35 20 1
35 21 8
35 22 8
35 23 5
35 24 5
35 25 5
35 26 9
35 27 8
35 28 11
35 29 4
35 30 9
35 31 7
35 32 10
35 33 10
35 34 4
36 0 9
36 1 3
36 2 6
36 3 7
36 4 9
36 5 3
36 6 6
36 7 7
36 8 8
36 9 2
36 10 9
36 11 3
36 12 1
36 13 6
36 14 5
36 15 2
36 16 2
36 17 4
36 18 2
36 19 10
36 20 4
36 21 5
36 22 11
36 23 5
36 24 10
36 25 9
36 26 8
36 27 11
36 28 6
36 29 9
36 30 2
36 31 11
36 32 6
36 33 1
36 34 7
36 35 8
37 0 8
37 1 6
37 2 10
37 3 4
37 4 5
37 5 7
37 6 9
37 7 3
37 8 9
37 9 11
37 10 3
37 11 8
37 12 5
37 13 1
37 14 3
37 15 7
37 16 5
37 17 7
37 18 6
37 19 1
37 20 7
37 21 6
37 22 8
37 23 4
37 24 11
37 25 4
37 26 3
37 27 8
37 28 3
37 29 1
37 30 1
37 31 4
37 32 1
37 33 11
37 34 1
37 35 7
37 36 8
38 0 8
38 1 3
38 2 11
38 3 10
38 4 8
38 5 10
38 6 1
38 7 3
38 8 2
38 9 3
38 10 5
38 11 11
38 12 2
38 13 4
38 14 11
38 15 7
38 16 11
38 17 2
38 18 9
38 19 10
38 20 7
38 21 6
38 22 11
38 23 1
38 24 2
38 25 5
38 26 9
38 27 1
38 28 6
38 29 9
38 30 10
38 31 6
38 32 5
38 33 5
38 34 2
38 35 11
38 36 1
38 37 3
39 0 1
39 1 10
39 2 8
39 3 4
39 4 8
39 5 10
39 6 5
39 7 9
39 8 3
39 9 8
39 10 6
39 11 1
39 12 2
39 13 6
39 14 10
39 15 10
39 16 6
39 17 11
39 18 7
39 19 3
39 20 10
39 21 3
39 22 6
39 23 1
39 24 7
39 25 11
39 26 6
39 27 9
39 28 9
39 29 5
39 30 9
39 31 2
39 32 10
39 33 7
39 34 10
39 35 1
39 36 11
39 37 3
39 38 1
40 0 5
40 1 8
40 2 7
40 3 11
40 4 10
40 5 8
40 6 4
40 7 7
40 8 1
40 9 9
40 10 8
40 11 6
40 12 7
40 13 10
40 14 10
40 15 3
40 16 1
40 17 6
40 18 7
40 19 2
40 20 2
40 21 10
40 22 11
40 23 6
40 24 4
40 25 2
40 26 8
40 27 9
40 28 9
40 29 4
40 30 6
40 31 7
40 32 5
40 33 7
40 34 1
40 35 9
40 36 8
40 37 6
40 38 11
40 39 1
41 0 10
41 1 2
41 2 9
41 3 10
41 4 7
41 5 4
41 6 8
41 7 11
41 8 1
41 9 4
41 10 8
41 11 7
41 12 7
41 13 7
41 14 8
41 15 9
41 16 1
41 17 6
41 18 5
41 19 5
41 20 10
41 21 10
41 22 3
41 23 7
41 24 2
41 25 10
41 26 2
41 27 6
41 28 1
41 29 1
41 30 1
41 31 7
41 32 11
41 33 7
41 34 1
41 35 7
41 36 7
41 37 9
41 38 10
41 39 2
41 40 7
42 0 8
42 1 8
42 2 11
42 3 7
42 4 11
42 5 11
42 6 2
42 7 4
42 8 1
42 9 9
42 10 5
42 11 3
42 12 4
42 13 4
42 14 6
42 15 3
42 16 7
42 17 1
42 18 1
42 19 11
42 20 2
42 21 2
42 22 6
42 23 11
42 24 9
42 25 3
42 26 3
42 27 7
42 28 4
42 29 9
42 30 8
42 31 7
42 32 3
42 33 8
42 34 10
42 35 6
42 36 10
42 37 3
42 38 1
42 39 6
42 40 10
42 41 5
43 0 3
43 1 9
43 2 10
43 3 5
43 4 7
43 5 4
43 6 6
43 7 2
43 8 5
43 9 7
43 10 11
43 11 10
43 12 8
43 13 1
43 14 11
43 15 3
43 16 10
43 17 2
43 18 7
43 19 3
43 20 5
43 21 5
43 22 2
43 23 8
43 24 8
43 25 10
43 26 11
43 27 1
43 28 5
43 29 8
43 30 10
43 31 7
43 32 8
43 33 10
43 34 2
43 35 3
43 36 7
43 37 4
43 38 3
43 39 6
43 40 9
43 41 7
43 42 9
44 0 3
44 1 10
44 2 4
44 3 8
44 4 5
44 5 4
44 6 9
44 7 6
44 8 9
44 9 11
44 10 8
44 11 5
44 12 5
44 13 3
44 14 10
44 15 5
44 16 1
44 17 1
44 18 11
44 19 2
44 20 4
44 21 4
44 22 5
44 23 3
44 24 2
44 25 3
44 26 10
44 27 8
44 28 6
44 29 1
44 30 5
44 31 2
44 32 5
44 33 1
44 34 1
44 35 11
44 36 1
44 37 6
44 38 7
44 39 7
44 40 4
44 41 2
44 42 1
44 43 5
45 0 11
45 1 7
45 2 10
45 3 3
45 4 5
45 5 1
45 6 11
45 7 5
45 8 8
45 9 11
45 10 7
45 11 7
45 12 5
45 13 3
45 14 6
45 15 8
45 16 9
45 17 3
45 18 9
45 19 4
45 20 7
45 21 1
45 22 3
45 23 11
45 24 11
45 25 2
45 26 7
45 27 3
45 28 7
45 29 5
45 30 4
45 31 3
45 32 1
45 33 6
45 34 8
45 35 6
45 36 5
45 37 11
45 38 3
45 39 11
45 40 3
45 41 6
45 42 4
45 43 8
45 44 11
46 0 2
46 1 7
46 2 1
46 3 2
46 4 9
46 5 1
46 6 9
46 7 11
46 8 9
46 9 11
46 10 2
46 11 8
46 12 8
46 13 8
46 14 4
46 15 2
46 16 8
46 17 1
46 18 3
46 19 8
46 20 5
46 21 10
46 22 11
46 23 10
46 24 9
46 25 6
46 26 10
46 27 1
46 28 5
46 29 3
46 30 3
46 31 11
46 32 8
46 33 1
46 34 5
46 35 6
46 36 2
46 37 9
46 38 8
46 39 9
46 40 7
46 41 10
46 42 9
46 43 10
46 44 2
46 45 3
47 0 5
47 1 2
47 2 10
47 3 1
47 4 1
47 5 4
47 6 7
47 7 5
47 8 7
47 9 4
47 10 8
47 11 4
47 12 9
47 13 9
47 14 11
47 15 5
47 16 9
47 17 5
47 18 7
47 19 4
47 20 3
47 21 8
47 22 3
47 23 11
47 24 11
47 25 8
47 26 11
47 27 7
47 28 5
47 29 10
47 30 4
47 31 9
47 32 7
47 33 9
47 34 4
47 35 5
47 36 6
47 37 6
47 38 6
47 39 11
47 40 6
47 41 7
47 42 11
47 43 5
47 44 7
47 45 8
47 46 7
48 0 10
48 1 10
48 2 5
48 3 1
48 4 7
48 5 5
48 6 8
48 7 4
48 8 5
48 9 2
48 10 6
48 11 7
48 12 10
48 13 3
48 14 11
48 15 2
48 16 1
48 17 2
48 18 4
48 19 4
48 20 4
48 21 7
48 22 9
48 23 4
48 24 2
48 25 9
48 26 2
48 27 1
48 28 11
48 29 7
48 30 6
48 31 7
48 32 9
48 33 10
48 34 4
48 35 1
48 36 2
48 37 7
48 38 11
48 39 3
48 40 4
48 41 4
48 42 3
48 43 1
48 44 5
48 45 3
48 46 11
48 47 4
49 0 3
49 1 7
49 2 9
49 3 2
49 4 3
49 5 2
49 6 1
49 7 6
49 8 3
49 9 9
49 10 7
49 11 3
49 12 11
49 13 3
49 14 3
49 15 1
49 16 9
49 17 1
49 18 10
49 19 7
49 20 6
49 21 9
49 22 11
49 23 1
49 24 7
49 25 1
49 26 9
49 27 9
49 28 9
49 29 4
49 30 4
49 31 4
49 32 4
49 33 10
49 34 5
49 35 10
49 36 4
49 37 1
49 38 7
49 39 8
49 40 6
49 41 5
49 42 9
49 43 7
49 44 11
49 45 4
49 46 5
49 47 10
49 48 7
50 0 10
50 1 6
50 2 5
50 3 8
50 4 5
50 5 6
50 6 1
50 7 3
50 8 2
50 9 3
50 10 3
50 11 4
50 12 7
50 13 9
50 14 4
50 15 4
50 16 8
50 17 1
50 18 6
50 19 11
50 20 11
50 21 1
50 22 8
50 23 3
50 24 9
50 25 8
50 26 3
50 27 1
50 28 6
50 29 5
50 30 7
50 31 6
50 32 8
50 33 11
50 34 3
50 35 6
50 36 2
50 37 2
50 38 6
50 39 9
50 40 8
50 41 11
50 42 4
50 43 4
50 44 1
50 45 10
50 46 2
50 47 2
50 48 1
50 49 2
51 0 9
51 1 11
51 2 5
51 3 5
51 4 5
51 5 7
51 6 4
51 7 5
51 8 9
51 9 7
51 10 5
51 11 10
51 12 2
51 13 5
51 14 2
51 15 9
51 16 2
51 17 11
51 18 9
51 19 8
51 20 11
51 21 7
51 22 3
51 23 9
51 24 10
51 25 3
51 26 9
51 27 9
51 28 11
51 29 6
51 30 7
51 31 8
51 32 10
51 33 2
51 34 3
51 35 7
51 36 9
51 37 1
51 38 4
51 39 10
51 40 4
51 41 6
51 42 6
51 43 4
51 44 11
51 45 6
51 46 5
51 47 4
51 48 11
51 49 10
51 50 4
52 0 6
52 1 7
52 2 6
52 3 10
52 4 5
52 5 11
52 6 4
52 7 5
52 8 7
52 9 5
52 10 8
52 11 10
52 12 6
52 13 6
52 14 9
52 15 2
52 16 9
52 17 5
52 18 5
52 19 7
52 20 11
52 21 7
52 22 7
52 23 2
52 24 5
52 25 11
52 26 8
52 27 6
52 28 4
52 29 11
52 30 9
52 31 8
52 32 11
52 33 8
52 34 1
52 35 2
52 36 10
52 37 4
52 38 3
52 39 7
52 40 10
52 41 7
52 42 9
52 43 2
52 44 6
52 45 1
52 46 10
52 47 1
52 48 10
52 49 10
52 50 4
52 51 3
53 0 2
53 1 9
53 2 2
53 3 3
53 4 3
53 5 2
53 6 10
53 7 2
53 8 7
53 9 9
53 10 3
53 11 7
53 12 10
53 13 11
53 14 10
53 15 4
53 16 10
53 17 11
53 18 10
53 19 3
53 20 7
53 21 6
53 22 11
53 23 3
53 24 10
53 25 10
53 26 5
53 27 5
53 28 9
53 29 5
53 30 1
53 31 10
53 32 8
53 33 2
53 34 1
53 35 5
53 36 10
53 37 8
53 38 5
53 39 7
53 40 2
53 41 3
53 42 2
53 43 9
53 44 8
53 45 11
53 46 2
53 47 3
53 48 2
53 49 2
53 50 4
53 51 4
53 52 6
54 0 7
54 1 5
54 2 6
54 3 2
54 4 9
54 5 3
54 6 8
54 7 1
54 8 10
54 9 6
54 10 2
54 11 3
54 12 5
54 13 6
54 14 6
54 15 10
54 16 1
54 17 6
54 18 5
54 19 6
54 20 5
54 21 1
54 22 6
54 23 4
54 24 9
54 25 1
54 26 9
54 27 3
54 28 3
54 29 11
54 30 6
54 31 1
54 32 1
54 33 1
54 34 10
54 35 1
54 36 7
54 37 10
54 38 9
54 39 2
54 40 5
54 41 7
54 42 2
54 43 3
54 44 3
54 45 3
54 46 11
54 47 5
54 48 5
54 49 7
54 50 11
54 51 5
54 52 7
54 53 10
55 0 8
55 1 1
55 2 11
55 3 3
55 4 4
55 5 1
55 6 9
55 7 1
55 8 8
55 9 7
55 10 1
55 11 5
55 12 4
55 13 2
55 14 4
55 15 7
55 16 5
55 17 9
55 18 9
55 19 1
55 20 7
55 21 2
55 22 4
55 23 2
55 24 5
55 25 11
55 26 1
55 27 9
55 28 5
55 29 2
55 30 8
55 31 11
55 32 10
55 33 4
55 34 4
55 35 9
55 36 6
55 37 7
55 38 2
55 39 11
55 40 1
55 41 1
55 42 10
55 43 10
55 44 3
55 45 11
55 46 9
55 47 3
55 48 6
55 49 4
55 50 11
55 51 6
55 52 8
55 53 11
55 54 4
56 0 2
56 1 10
56 2 5
56 3 8
56 4 4
56 5 6
56 6 7
56 7 1
56 8 10
56 9 10
56 10 2
56 11 11
56 12 5
56 13 9
56 14 8
56 15 9
56 16 7
56 17 10
56 18 9
56 19 1
56 20 1
56 21 3
56 22 11
56 23 8
56 24 9
56 25 8
56 26 7
56 27 4
56 28 9
56 29 1
56 30 7
56 31 10
56 32 5
56 33 4
56 34 10
56 35 3
56 36 10
56 37 7
56 38 3
56 39 4
56 40 4
56 41 10
56 42 1
56 43 3
56 44 11
56 45 7
56 46 3
56 47 9
56 48 2
56 49 7
56 50 8
56 51 4
56 52 3
56 53 8
56 54 3
56 55 6
57 0 11
57 1 5
57 2 6
57 3 1
57 4 8
57 5 4
57 6 5
57 7 11
57 8 11
57 9 7
57 10 8
57 11 9
57 12 1
57 13 9
57 14 1
57 15 2
57 16 1
57 17 5
57 18 11
57 19 7
57 20 7
57 21 9
57 22 11
57 23 10
57 24 11
57 25 6
57 26 1
57 27 6
57 28 11
57 29 2
57 30 7
57 31 5
57 32 7
57 33 11
57 34 3
57 35 8
57 36 3
57 37 9
57 38 5
57 39 7
57 40 7
57 41 9
57 42 11
57 43 1
57 44 8
57 45 3
57 46 2
57 47 9
57 48 11
57 49 2
57 50 8
57 51 4
57 52 9
57 53 4
57 54 11
57 55 6
57 56 2
58 0 11
58 1 4
58 2 2
58 3 1
58 4 1
58 5 5
58 6 3
58 7 9
58 8 11
58 9 4
58 10 5
58 11 10
58 12 3
58 13 9
58 14 2
58 15 2
58 16 7
58 17 2
58 18 4
58 19 5
58 20 7
58 21 3
58 22 10
58 23 5
58 24 8
58 25 7
58 26 7
58 27 9
58 28 2
58 29 4
58 30 7
58 31 4
58 32 8
58 33 1
58 34 2
58 35 4
58 36 6
58 37 4
58 38 1
58 39 4
58 40 9
58 41 10
58 42 6
58 43 3
58 44 11
58 45 5
58 46 7
58 47 10
58 48 6
58 49 3
58 50 1
58 51 10
58 52 9
58 53 9
58 54 8
58 55 11
58 56 6
58 57 1
59 0 8
59 1 10
59 2 3
59 3 4
59 4 5
59 5 6
59 6 8
59 7 1
59 8 6
59 9 1
59 10 4
59 11 9
59 12 5
59 13 7
59 14 1
59 15 3
59 16 9
59 17 3
59 18 10
59 19 10
59 20 11
59 21 8
59 22 6
59 23 2
59 24 11
59 25 2
59 26 9
59 27 9
59 28 8
59 29 8
59 30 4
59 31 10
59 32 2
59 33 4
59 34 5
59 35 1
59 36 8
59 37 11
59 38 1
59 39 10
59 40 6
59 41 10
59 42 9
59 43 11
59 44 5
59 45 5
59 46 10
59 47 5
59 48 10
59 49 7
59 50 10
59 51 4
59 52 11
59 53 2
59 54 6
59 55 4
59 56 9
59 57 6
59 58 6
60 0 9
60 1 6
60 2 5
60 3 3
60 4 4
60 5 5
60 6 2
60 7 1
60 8 6
60 9 3
60 10 1
60 11 8
60 12 3
60 13 8
60 14 10
60 15 10
60 16 8
60 17 11
60 18 7
60 19 4
60 20 4
60 21 11
60 22 5
60 23 4
60 24 7
60 25 3
60 26 1
60 27 5
60 28 2
60 29 7
60 30 4
60 31 11
60 32 5
60 33 2
60 34 1
60 35 3
60 36 6
60 37 5
60 38 9
60 39 5
60 40 3
60 41 11
60 42 5
60 43 6
60 44 4
60 45 3
60 46 7
60 47 10
60 48 5
60 49 3
60 50 7
60 51 10
60 52 3
60 53 7
60 54 4
60 55 5
60 56 9
60 57 6
60 58 5
60 59 9
61 0 1
61 1 1
61 2 8
61 3 1
61 4 1
61 5 7
61 6 4
61 7 9
61 8 3
61 9 5
61 10 7
61 11 5
61 12 8
61 13 11
61 14 8
61 15 5
61 16 3
61 17 6
61 18 4
61 19 3
61 20 1
61 21 7
61 22 5
61 23 10
61 24 4
61 25 8
61 26 10
61 27 9
61 28 7
61 29 6
61 30 9
61 31 5
61 32 2
61 33 11
61 34 11
61 35 2
61 36 11
61 37 9
61 38 2
61 39 11
61 40 2
61 41 11
61 42 4
61 43 2
61 44 7
61 45 3
61 46 3
61 47 8
61 48 6
61 49 6
61 50 11
61 51 9
61 52 1
61 53 11
61 54 8
61 55 9
61 56 9
61 57 7
61 58 3
61 59 7
61 60 8
62 0 10
62 1 5
62 2 1
62 3 7
62 4 8
62 5 11
62 6 6
62 7 7
62 8 4
62 9 8
62 10 1
62 11 7
62 12 1
62 13 1
62 14 3
62 15 4
62 16 5
62 17 6
62 18 6
62 19 4
62 20 2
62 21 10
62 22 4
62 23 10
62 24 5
62 25 6
62 26 7
62 27 7
62 28 8
62 29 5
62 30 2
62 31 11
62 32 2
62 33 1
62 34 9
62 35 2
62 36 4
62 37 6
62 38 1
62 39 4
62 40 11
62 41 2
62 42 10
62 43 5
62 44 7
62 45 1
62 46 9
62 47 6
62 48 4
62 49 3
62 50 4
62 51 2
62 52 8
62 53 10
62 54 10
62 55 7
62 56 7
62 57 1
62 58 4
62 59 7
62 60 7
62 61 6
63 0 2
63 1 6
63 2 4
63 3 10
63 4 6
63 5 4
63 6 7
63 7 9
63 8 9
63 9 6
63 10 10
63 11 9
63 12 4
63 13 1
63 14 8
63 15 1
63 16 8
63 17 3
63 18 11
63 19 6
63 20 5
63 21 10
63 22 2
63 23 2
63 24 2
63 25 11
63 26 9
63 27 1
63 28 7
63 29 3
63 30 8
63 31 5
63 32 5
63 33 3
63 34 4
63 35 4
63 36 2
63 37 9
63 38 7
63 39 7
63 40 6
63 41 5
63 42 11
63 43 10
63 44 4
63 45 11
63 46 3
63 47 9
63 48 5
63 49 4
63 50 2
63 51 2
63 52 11
63 53 6
63 54 9
63 55 10
63 56 9
63 57 1
63 58 10
63 59 1
63 60 7
63 61 7
63 62 7
64 0 1
64 1 10
64 2 11
64 3 4
64 4 3
64 5 3
64 6 11
64 7 10
64 8 1
64 9 11
64 10 11
64 11 6
64 12 5
64 13 1
64 14 3
64 15 3
64 16 11
64 17 11
64 18 2
64 19 3
64 20 1
64 21 9
64 22 5
64 23 4
64 24 7
64 25 3
64 26 9
64 27 1
64 28 1
64 29 10
64 30 11
64 31 6
64 32 11
64 33 2
64 34 5
64 35 1
64 36 6
64 37 2
64 38 6
64 39 3
64 40 9
64 41 4
64 42 6
64 43 3
64 44 3
64 45 4
64 46 11
64 47 3
64 48 3
64 49 8
64 50 9
64 51 9
64 52 1
64 53 5
64 54 7
64 55 8
64 56 8
64 57 6
64 58 11
64 59 1
64 60 6
64 61 7
64 62 6
64 63 4
65 0 4
65 1 3
65 2 9
65 3 7
65 4 1
65 5 11
65 6 5
65 7 8
65 8 6
65 9 10
65 10 3
65 11 3
65 12 10
65 13 1
65 14 6
65 15 7
65 16 2
65 17 5
65 18 5
65 19 8
65 20 7
65 21 11
65 22 4
65 23 11
65 24 7
65 25 2
65 26 11
65 27 10
65 28 3
65 29 11
65 30 2
65 31 8
65 32 8
65 33 4
65 34 11
65 35 3
65 36 8
65 37 11
65 38 7
65 39 4
65 40 3
65 41 7
65 42 7
65 43 8
65 44 3
65 45 9
65 46 11
65 47 1
65 48 10
65 49 10
65 50 7
65 51 2
65 52 11
65 53 11
65 54 6
65 55 3
65 56 7
65 57 2
65 58 11
65 59 5
65 60 5
65 61 7
65 62 6
65 63 9
65 64 4
66 0 10
66 1 4
66 2 3
66 3 5
66 4 2
66 5 2
66 6 5
66 7 8
66 8 8
66 9 7
66 10 1
66 11 11
66 12 8
66 13 6
66 14 1
66 15 5
66 16 5
66 17 3
66 18 4
66 19 8
66 20 4
66 21 2
66 22 8
66 23 7
66 24 11
66 25 8
66 26 11
66 27 1
66 28 11
66 29 10
66 30 1
66 31 7
66 32 3
66 33 9
66 34 4
66 35 8
66 36 8
66 37 2
66 38 9
66 39 10
66 40 1
66 41 2
66 42 8
66 43 10
66 44 6
66 45 1
66 46 4
66 47 2
66 48 11
66 49 2
66 50 5
66 51 3
66 52 5
66 53 5
66 54 3
66 55 4
66 56 2
66 57 3
66 58 7
66 59 10
66 60 8
66 61 10
66 62 6
66 63 5
66 64 1
66 65 4
67 0 8
67 1 9
67 2 1
67 3 5
67 4 5
67 5 6
67 6 4
67 7 9
67 8 11
67 9 1
67 10 5
67 11 4
67 12 11
67 13 11
67 14 9
67 15 3
67 16 6
67 17 11
67 18 5
67 19 5
67 20 6
67 21 10
67 22 7
67 23 2
67 24 4
67 25 10
67 26 4
67 27 9
67 28 3
67 29 6
67 30 7
67 31 5
67 32 9
67 33 4
67 34 8
67 35 9
67 36 9
67 37 3
67 38 8
67 39 7
67 40 1
67 41 11
67 42 1
67 43 6
67 44 2
67 45 1
67 46 7
67 47 5
67 48 7
67 49 1
67 50 11
67 51 6
67 52 11
67 53 11
67 54 3
67 55 3
67 56 1
67 57 5
67 58 4
67 59 11
67 60 7
67 61 1
67 62 2
67 63 4
67 64 6
67 65 11
67 66 4
68 0 5
68 1 2
68 2 11
68 3 1
68 4 1
68 5 10
68 6 1
68 7 2
68 8 5
68 9 3
68 10 1
68 11 3
68 12 3
68 13 4
68 14 4
68 15 5
68 16 7
68 17 8
68 18 8
68 19 11
68 20 4
68 21 2
68 22 6
68 23 6
68 24 4
68 25 10
68 26 8
68 27 6
68 28 8
68 29 9
68 30 1
68 31 7
68 32 4
68 33 4
68 34 7
68 35 6
68 36 3
68 37 11
68 38 7
68 39 9
68 40 3
68 41 8
68 42 6
68 43 10
68 44 3
68 45 1
68 46 2
68 47 4
68 48 10
68 49 1
68 50 3
68 51 5
68 52 8
68 53 10
68 54 10
68 55 9
68 56 5
68 57 6
68 58 7
68 59 4
68 60 9
68 61 9
68 62 11
68 63 9
68 64 11
68 65 5
68 66 4
68 67 8
69 0 4
69 1 6
69 2 2
69 3 11
69 4 8
69 5 7
69 6 6
69 7 8
69 8 4
69 9 5
69 10 7
69 11 7
69 12 6
69 13 11
69 14 2
69 15 4
69 16 2
69 17 8
69 18 9
69 19 3
69 20 5
69 21 9
69 22 1
69 23 6
69 24 11
69 25 4
69 26 8
69 27 2
69 28 1
69 29 1
69 30 10
69 31 5
69 32 10
69 33 2
69 34 8
69 35 11
69 36 4
69 37 4
69 38 6
69 39 10
69 40 3
69 41 9
69 42 10
69 43 6
69 44 11
69 45 8
69 46 1
69 47 11
69 48 10
69 49 9
69 50 2
69 51 7
69 52 11
69 53 6
69 54 6
69 55 7
69 56 2
69 57 8
69 58 8
69 59 7
69 60 8
69 61 11
69 62 11
69 63 7
69 64 3
69 65 8
69 66 3
69 67 7
69 68 4
